c status 21 1469275573562
c status 20 1469275573569
c status 19 1469275573648
c status 18 1469275577458
s td 10 18 27
b 1 1 6 23 22 24 26 25 13 21 20 2
b 2 6 11 23 15 17 22 24 26 12 25 13 21 20 19 2 18 16 14
b 3 3 5 11 23 15 17 22 26 20 2 16
b 4 4 27 23 15 17 22 24 12 13 20 18
b 5 7 8 11 15 22 26 25 13 20 19 18
b 6 8 11 23 15 17 22 24 26 12 25 13 21 20 19 2 18 16 14
b 7 10 23 15 26 12 13 21 20 19 16 9
b 8 5 11 23 15 17 22 24 26 12 25 13 21 20 19 2 18 16 14
b 9 27 11 23 15 17 22 24 26 12 25 13 21 20 19 2 18 16 14
b 10 11 23 15 17 22 24 26 12 25 13 21 20 19 2 18 16 14 9
1 2
2 6
2 10
10 9
10 8
8 3
10 7
9 4
6 5
